31
0 0
7 16
30
15
7 0
13 7
28
15
13 0
18 8
29
15
18 0
21 13
23
12
21 0
30 6
27
14
21 6
26 20
25
13
26 6
29 23
24
13
7 8
16 13
26
13
7 13
15 28
21
11
15 13
21 22
20
11
0 16
5 26
22
11
15 23
27 29
18
10
29 6
31 35
19
10
0 26
5 37
17
10
5 29
18 36
16
9
27 23
29 45
15
9
18 29
25 38
12
8
5 36
8 48
14
8
25 29
27 55
5
3
8 36
16 43
13
8
8 43
18 48
11
7
0 48
8 60
9
6
8 48
19 54
10
6
8 54
15 67
7
5
29 35
31 66
8
5
19 38
24 48
6
4
15 54
23 67
4
3
23 55
29 68
1
1
0 60
5 69
2
2
5 67
20 72
3
2
20 68
31 72
0
1
